\ENCODING=ISO-8859-1
\Problem name: 

Minimize
 obj: x1 + x2 + x3 + x4 + x5 + x6 + x7 + x8 + x9 + x10 + x11 + x12 + x13 + x14
      + x15 + x16 + x17 + x18 + x19 + x20 + x21 + x22 + x23 + x24 + x25 + x26
      + x27 + x28 + x29 + x30 + 2 x31 + 2 x32 + 2 x33 + 2 x34 + 2 x35 + 2 x36
      + 2 x37 + 2 x38 + 2 x39 + 2 x40 + 2 x41 + 2 x42 + 2 x43 + 2 x44 + 2 x45
      + 2 x46 + 2 x47 + 2 x48 + 2 x49 + 2 x50 + 3 x51 + 3 x52 + 3 x53 + 3 x54
      + 3 x55 + 3 x56 + 3 x57 + 3 x58 + 3 x59 + 3 x60 + 3 x61 + 3 x62 + 3 x63
      + 3 x64 + 3 x65 + 3 x66 + 3 x67 + 3 x68 + 3 x69 + 3 x70 + 3 x71 + 3 x72
      + 3 x73 + 4 x74 + 4 x75 + 4 x76 + 4 x77 + 4 x78 + 4 x79 + 4 x80 + 4 x81
      + 4 x82 + 4 x83 + 4 x84 + 4 x85 + 4 x86 + 4 x87 + 4 x88 + 4 x89 + 4 x90
      + 4 x91 + 5 x92 + 5 x93 + 5 x94 + 5 x95 + 5 x96 + 5 x97 + 5 x98 + 5 x99
      + 5 x100 + 5 x101 + 5 x102 + 5 x103 + 5 x104 + 5 x105 + 5 x106 + 6 x107
      + 6 x108 + 6 x109 + 6 x110 + 6 x111 + 6 x112 + 6 x113 + 6 x114 + 6 x115
      + 6 x116 + 6 x117 + 6 x118 + 6 x119 + 7 x120 + 7 x121 + 7 x122 + 7 x123
      + 7 x124 + 8 x125 + 8 x126 + 8 x127 + 8 x128 + 8 x129 + 8 x130 + 8 x131
      + 8 x132 + 8 x133 + 9 x134 + 9 x135 + 9 x136 + 9 x137 + 9 x138 + 9 x139
      + 10 x140 + 10 x141 + 10 x142 + 10 x143 + 10 x144 + 10 x145 + 10 x146
      + 11 x147 + 11 x148 + 11 x149 + 11 x150 + 11 x151 + 11 x152 + 11 x153
      + 11 x154 + 11 x155 + 12 x156 + 12 x157 + 12 x158 + 13 x159 + 14 x160
      + 14 x161 + 14 x162 + 15 x163 + 16 x164 + 16 x165 + 16 x166 + 19 x167
      + 20 x168 + 20 x169 + 22 x170 + 22 x171
Subject To
 c1:   x69 + x134 >= 1
 c2:   x22 + x46 + x101 + x104 + x111 + x170 >= 1
 c3:   x75 + x83 + x125 + x140 >= 1
 c4:   x43 + x159 + x161 + x163 >= 1
 c5:   x20 + x55 + x76 >= 1
 c6:   x4 + x136 + x170 >= 1
 c7:   x32 + x33 + x91 >= 1
 c8:   x12 + x61 + x112 + x134 + x136 >= 1
 c9:   x10 + x11 >= 1
 c10:  x35 + x70 + x100 + x149 >= 1
 c11:  x4 + x6 + x82 + x163 + x168 >= 1
 c12:  x32 + x44 + x75 + x125 + x140 + x166 >= 1
 c13:  x74 + x75 + x118 >= 1
 c14:  x125 + x146 + x165 >= 1
 c15:  x5 >= 1
 c16:  x10 + x34 + x93 + x100 + x170 >= 1
 c17:  x86 + x124 + x126 + x137 + x160 + x164 >= 1
 c18:  x1 + x34 + x73 + x81 >= 1
 c19:  x2 + x3 + x38 >= 1
 c20:  x34 + x35 + x47 + x116 + x140 >= 1
 c21:  x74 + x97 + x105 >= 1
 c22:  x63 + x68 + x70 + x157 >= 1
 c23:  x30 + x39 + x52 + x56 + x66 + x145 >= 1
 c24:  x44 + x120 + x148 >= 1
 c25:  x2 + x53 + x80 + x90 + x95 + x161 + x164 >= 1
 c26:  x47 + x60 + x81 + x86 >= 1
 c27:  x6 + x56 + x78 + x100 + x135 >= 1
 c28:  x48 + x120 + x147 >= 1
 c29:  x36 + x93 + x94 + x162 >= 1
 c30:  x21 + x37 + x126 >= 1
 c31:  x41 + x74 + x162 >= 1
 c32:  x40 + x137 + x142 >= 1
 c33:  x7 + x120 + x134 + x148 >= 1
 c34:  x6 + x13 + x42 + x129 >= 1
 c35:  x12 + x45 + x89 + x120 >= 1
 c36:  x78 + x85 + x95 + x112 + x117 >= 1
 c37:  x1 + x16 >= 1
 c38:  x14 + x20 + x126 + x165 >= 1
 c39:  x8 + x171 >= 1
 c40:  x17 + x31 + x122 + x127 >= 1
 c41:  x24 + x56 + x65 + x68 + x84 + x134 + x144 >= 1
 c42:  x133 + x163 + x169 >= 1
 c43:  x11 + x102 >= 1
 c44:  x77 + x161 + x163 >= 1
 c45:  x54 + x135 + x154 + x160 + x165 + x168 >= 1
 c46:  x72 + x103 + x109 + x123 + x168 >= 1
 c47:  x61 + x81 + x96 + x115 + x163 + x171 >= 1
 c48:  x77 + x137 >= 1
 c49:  x2 + x36 + x74 + x96 >= 1
 c50:  x10 + x40 + x46 + x53 + x143 + x160 >= 1
 c51:  x7 + x71 + x103 + x104 + x113 >= 1
 c52:  x32 + x43 + x65 + x85 + x160 + x168 >= 1
 c53:  x11 + x77 + x94 >= 1
 c54:  x5 + x107 + x133 + x142 + x159 >= 1
 c55:  x5 + x17 + x33 >= 1
 c56:  x16 + x144 >= 1
 c57:  x50 + x159 >= 1
 c58:  x33 + x130 >= 1
 c59:  x19 + x33 >= 1
 c60:  x66 + x83 + x97 + x138 + x139 + x157 + x164 >= 1
 c61:  x16 + x51 + x92 + x150 >= 1
 c62:  x64 + x105 + x169 >= 1
 c63:  x13 + x19 + x52 + x99 >= 1
 c64:  x52 + x117 + x121 + x154 >= 1
 c65:  x25 + x26 + x33 + x64 >= 1
 c66:  x75 + x122 + x170 >= 1
 c67:  x9 + x86 >= 1
 c68:  x58 + x111 + x145 >= 1
 c69:  x114 + x123 + x134 + x170 + x171 >= 1
 c70:  x57 + x126 >= 1
 c71:  x37 + x98 >= 1
 c72:  x24 + x122 + x141 + x156 >= 1
 c73:  x5 + x27 + x34 + x143 >= 1
 c74:  x18 + x37 + x109 >= 1
 c75:  x2 + x18 + x41 + x84 + x136 + x167 >= 1
 c76:  x1 + x25 + x26 + x51 + x99 + x108 + x131 >= 1
 c77:  x51 + x58 + x64 + x75 >= 1
 c78:  x52 + x67 + x81 + x92 + x126 + x129 + x161 >= 1
 c79:  x67 + x84 + x93 + x121 >= 1
 c80:  x13 + x34 + x94 + x153 + x157 >= 1
 c81:  x71 >= 1
 c82:  x35 + x79 >= 1
 c83:  x81 + x153 >= 1
 c84:  x36 + x56 + x87 + x96 + x113 + x164 >= 1
 c85:  x3 + x88 >= 1
 c86:  x3 + x5 + x12 + x55 + x65 + x95 + x151 >= 1
 c87:  x82 + x96 + x147 >= 1
 c88:  x1 + x21 + x126 + x156 >= 1
 c89:  x59 + x137 + x140 >= 1
 c90:  x6 + x33 + x62 + x99 + x156 + x160 + x169 >= 1
 c91:  x54 + x74 + x168 >= 1
 c92:  x106 + x129 + x150 >= 1
 c93:  x7 >= 1
 c94:  x19 + x31 + x62 >= 1
 c95:  x1 + x32 + x42 + x57 + x93 + x107 + x141 >= 1
 c96:  x1 + x4 + x121 >= 1
 c97:  x80 + x90 + x97 + x151 + x156 >= 1
 c98:  x36 + x57 + x110 + x137 + x142 + x151 >= 1
 c99:  x115 >= 1
 c100: x20 + x61 + x136 + x150 >= 1
 c101: x27 + x39 + x45 + x76 >= 1
 c102: x32 + x55 + x119 + x126 + x134 >= 1
 c103: x98 + x103 + x131 + x156 >= 1
 c104: x4 + x60 + x160 + x167 >= 1
 c105: x2 + x32 >= 1
 c106: x40 + x80 + x89 + x101 >= 1
 c107: x54 + x60 + x61 + x143 + x163 >= 1
 c108: x33 + x41 + x43 + x45 >= 1
 c109: x102 + x124 + x135 + x149 >= 1
 c110: x59 + x98 + x127 + x130 + x164 + x168 >= 1
 c111: x120 + x170 >= 1
 c112: x2 + x15 + x31 + x101 + x128 + x141 >= 1
 c113: x100 + x111 + x112 + x118 + x136 + x141 >= 1
 c114: x40 + x58 + x78 + x98 + x138 >= 1
 c115: x38 + x88 + x165 >= 1
 c116: x53 + x83 + x88 + x123 + x131 + x163 >= 1
 c117: x17 + x53 + x71 + x82 + x107 + x159 >= 1
 c118: x15 + x56 + x64 + x87 + x149 + x157 >= 1
 c119: x3 + x52 + x77 + x122 + x169 >= 1
 c120: x14 + x94 >= 1
 c121: x67 >= 1
 c122: x11 + x60 + x108 + x156 >= 1
 c123: x152 + x153 + x155 + x159 + x162 + x167 + x169 >= 1
 c124: x7 + x31 + x80 >= 1
 c125: x46 + x59 + x168 >= 1
 c126: x34 + x37 + x75 + x118 + x163 >= 1
 c127: x38 + x128 + x135 >= 1
 c128: x29 + x31 + x52 + x54 + x75 + x80 + x95 + x107 >= 1
 c129: x1 + x77 >= 1
 c130: x3 + x144 >= 1
 c131: x13 + x22 + x35 + x102 + x123 + x127 >= 1
 c132: x21 + x63 + x138 >= 1
 c133: x2 + x38 + x66 + x117 + x130 + x142 + x147 >= 1
 c134: x49 + x78 + x84 + x134 >= 1
 c135: x32 + x53 + x143 >= 1
 c136: x23 + x92 + x141 >= 1
 c137: x4 + x37 + x108 >= 1
 c138: x54 + x55 + x101 + x116 + x160 + x163 >= 1
 c139: x78 + x94 >= 1
 c140: x47 + x98 + x114 + x124 >= 1
 c141: x24 + x51 + x92 >= 1
 c142: x74 + x148 + x161 >= 1
 c143: x116 + x132 + x168 >= 1
 c144: x57 + x129 + x140 >= 1
 c145: x9 + x127 + x147 >= 1
 c146: x93 + x110 + x113 + x148 + x166 >= 1
 c147: x51 + x92 + x123 + x165 >= 1
 c148: x5 + x74 + x125 + x144 >= 1
 c149: x8 + x150 >= 1
 c150: x44 + x61 + x66 + x72 + x76 >= 1
 c151: x92 + x137 >= 1
 c152: x108 + x154 + x155 >= 1
 c153: x85 + x92 + x110 + x127 + x149 >= 1
 c154: x10 + x55 + x79 >= 1
 c155: x94 >= 1
 c156: x115 + x119 + x130 + x138 + x142 + x143 >= 1
 c157: x17 + x36 + x167 >= 1
 c158: x16 + x90 + x159 >= 1
 c159: x39 + x53 + x143 >= 1
 c160: x91 + x97 >= 1
 c161: x125 + x147 + x171 >= 1
 c162: x62 + x69 + x121 >= 1
 c163: x35 + x77 + x92 + x134 + x158 + x168 + x171 >= 1
 c164: x3 + x41 + x76 + x82 + x95 >= 1
 c165: x12 + x74 + x149 + x158 >= 1
 c166: x31 + x87 + x125 + x132 + x135 >= 1
 c167: x38 + x89 + x93 >= 1
 c168: x99 + x121 + x146 >= 1
 c169: x79 >= 1
 c170: x145 + x158 + x159 + x166 + x167 >= 1
 c171: x8 + x42 + x122 + x125 + x138 + x140 + x147 + x162 >= 1
 c172: x4 + x69 + x169 >= 1
 c173: x15 + x28 + x82 + x120 + x134 + x136 >= 1
 c174: x78 + x120 + x160 >= 1
 c175: x63 + x95 + x141 + x152 >= 1
 c176: x23 + x85 + x125 + x135 + x139 + x156 >= 1
 c177: x108 + x142 + x157 >= 1
 c178: x18 + x54 + x111 >= 1
 c179: x59 + x114 >= 1
 c180: x83 + x96 + x97 + x104 + x109 + x110 + x147 >= 1
 c181: x60 + x67 + x107 + x109 + x128 + x132 + x152 + x170 >= 1
 c182: x3 + x9 + x34 + x42 + x51 + x121 + x127 + x148 >= 1
 c183: x14 + x169 >= 1
 c184: x93 + x121 + x128 + x151 >= 1
 c185: x7 + x9 + x76 + x112 + x164 >= 1
 c186: x152 + x168 >= 1
 c187: x39 + x48 + x70 + x107 + x164 + x166 >= 1
 c188: x6 + x62 >= 1
 c189: x63 + x79 + x87 + x164 >= 1
 c190: x73 + x79 >= 1
 c191: x58 + x65 + x92 >= 1
 c192: x15 + x23 + x31 + x57 + x59 >= 1
 c193: x8 + x14 + x31 + x32 + x51 + x55 + x161 >= 1
 c194: x86 + x147 + x158 >= 1
 c195: x39 + x56 + x58 + x76 + x140 + x157 + x171 >= 1
 c196: x1 >= 1
 c197: x68 >= 1
 c198: x113 + x128 + x139 + x150 >= 1
 c199: x22 + x83 + x160 + x168 + x171 >= 1
 c200: x129 + x141 + x144 + x167 >= 1
Bounds
 0 <= x1 <= 1
 0 <= x2 <= 1
 0 <= x3 <= 1
 0 <= x4 <= 1
 0 <= x5 <= 1
 0 <= x6 <= 1
 0 <= x7 <= 1
 0 <= x8 <= 1
 0 <= x9 <= 1
 0 <= x10 <= 1
 0 <= x11 <= 1
 0 <= x12 <= 1
 0 <= x13 <= 1
 0 <= x14 <= 1
 0 <= x15 <= 1
 0 <= x16 <= 1
 0 <= x17 <= 1
 0 <= x18 <= 1
 0 <= x19 <= 1
 0 <= x20 <= 1
 0 <= x21 <= 1
 0 <= x22 <= 1
 0 <= x23 <= 1
 0 <= x24 <= 1
 0 <= x25 <= 1
 0 <= x26 <= 1
 0 <= x27 <= 1
 0 <= x28 <= 1
 0 <= x29 <= 1
 0 <= x30 <= 1
 0 <= x31 <= 1
 0 <= x32 <= 1
 0 <= x33 <= 1
 0 <= x34 <= 1
 0 <= x35 <= 1
 0 <= x36 <= 1
 0 <= x37 <= 1
 0 <= x38 <= 1
 0 <= x39 <= 1
 0 <= x40 <= 1
 0 <= x41 <= 1
 0 <= x42 <= 1
 0 <= x43 <= 1
 0 <= x44 <= 1
 0 <= x45 <= 1
 0 <= x46 <= 1
 0 <= x47 <= 1
 0 <= x48 <= 1
 0 <= x49 <= 1
 0 <= x50 <= 1
 0 <= x51 <= 1
 0 <= x52 <= 1
 0 <= x53 <= 1
 0 <= x54 <= 1
 0 <= x55 <= 1
 0 <= x56 <= 1
 0 <= x57 <= 1
 0 <= x58 <= 1
 0 <= x59 <= 1
 0 <= x60 <= 1
 0 <= x61 <= 1
 0 <= x62 <= 1
 0 <= x63 <= 1
 0 <= x64 <= 1
 0 <= x65 <= 1
 0 <= x66 <= 1
 0 <= x67 <= 1
 0 <= x68 <= 1
 0 <= x69 <= 1
 0 <= x70 <= 1
 0 <= x71 <= 1
 0 <= x72 <= 1
 0 <= x73 <= 1
 0 <= x74 <= 1
 0 <= x75 <= 1
 0 <= x76 <= 1
 0 <= x77 <= 1
 0 <= x78 <= 1
 0 <= x79 <= 1
 0 <= x80 <= 1
 0 <= x81 <= 1
 0 <= x82 <= 1
 0 <= x83 <= 1
 0 <= x84 <= 1
 0 <= x85 <= 1
 0 <= x86 <= 1
 0 <= x87 <= 1
 0 <= x88 <= 1
 0 <= x89 <= 1
 0 <= x90 <= 1
 0 <= x91 <= 1
 0 <= x92 <= 1
 0 <= x93 <= 1
 0 <= x94 <= 1
 0 <= x95 <= 1
 0 <= x96 <= 1
 0 <= x97 <= 1
 0 <= x98 <= 1
 0 <= x99 <= 1
 0 <= x100 <= 1
 0 <= x101 <= 1
 0 <= x102 <= 1
 0 <= x103 <= 1
 0 <= x104 <= 1
 0 <= x105 <= 1
 0 <= x106 <= 1
 0 <= x107 <= 1
 0 <= x108 <= 1
 0 <= x109 <= 1
 0 <= x110 <= 1
 0 <= x111 <= 1
 0 <= x112 <= 1
 0 <= x113 <= 1
 0 <= x114 <= 1
 0 <= x115 <= 1
 0 <= x116 <= 1
 0 <= x117 <= 1
 0 <= x118 <= 1
 0 <= x119 <= 1
 0 <= x120 <= 1
 0 <= x121 <= 1
 0 <= x122 <= 1
 0 <= x123 <= 1
 0 <= x124 <= 1
 0 <= x125 <= 1
 0 <= x126 <= 1
 0 <= x127 <= 1
 0 <= x128 <= 1
 0 <= x129 <= 1
 0 <= x130 <= 1
 0 <= x131 <= 1
 0 <= x132 <= 1
 0 <= x133 <= 1
 0 <= x134 <= 1
 0 <= x135 <= 1
 0 <= x136 <= 1
 0 <= x137 <= 1
 0 <= x138 <= 1
 0 <= x139 <= 1
 0 <= x140 <= 1
 0 <= x141 <= 1
 0 <= x142 <= 1
 0 <= x143 <= 1
 0 <= x144 <= 1
 0 <= x145 <= 1
 0 <= x146 <= 1
 0 <= x147 <= 1
 0 <= x148 <= 1
 0 <= x149 <= 1
 0 <= x150 <= 1
 0 <= x151 <= 1
 0 <= x152 <= 1
 0 <= x153 <= 1
 0 <= x154 <= 1
 0 <= x155 <= 1
 0 <= x156 <= 1
 0 <= x157 <= 1
 0 <= x158 <= 1
 0 <= x159 <= 1
 0 <= x160 <= 1
 0 <= x161 <= 1
 0 <= x162 <= 1
 0 <= x163 <= 1
 0 <= x164 <= 1
 0 <= x165 <= 1
 0 <= x166 <= 1
 0 <= x167 <= 1
 0 <= x168 <= 1
 0 <= x169 <= 1
 0 <= x170 <= 1
 0 <= x171 <= 1
Binaries
 x1  x2  x3  x4  x5  x6  x7  x8  x9  x10  x11  x12  x13  x14  x15  x16  x17 
 x18  x19  x20  x21  x22  x23  x24  x25  x26  x27  x28  x29  x30  x31  x32 
 x33  x34  x35  x36  x37  x38  x39  x40  x41  x42  x43  x44  x45  x46  x47 
 x48  x49  x50  x51  x52  x53  x54  x55  x56  x57  x58  x59  x60  x61  x62 
 x63  x64  x65  x66  x67  x68  x69  x70  x71  x72  x73  x74  x75  x76  x77 
 x78  x79  x80  x81  x82  x83  x84  x85  x86  x87  x88  x89  x90  x91  x92 
 x93  x94  x95  x96  x97  x98  x99  x100  x101  x102  x103  x104  x105  x106 
 x107  x108  x109  x110  x111  x112  x113  x114  x115  x116  x117  x118  x119 
 x120  x121  x122  x123  x124  x125  x126  x127  x128  x129  x130  x131  x132 
 x133  x134  x135  x136  x137  x138  x139  x140  x141  x142  x143  x144  x145 
 x146  x147  x148  x149  x150  x151  x152  x153  x154  x155  x156  x157  x158 
 x159  x160  x161  x162  x163  x164  x165  x166  x167  x168  x169  x170  x171 
End
